178
0 154 161 166 67 152 29 124 171 172 
153 27 39 96 71 11 149 7 9 109 
46 57 52 90 79 158 108 127 32 16 
77 75 85 148 37 140 125 126 162 47 
138 150 112 116 135 167 49 114 61 82 
147 18 115 63 13 104 88 74 64 87 
131 141 105 34 62 101 170 160 107 177 
45 143 6 106 146 41 33 38 157 81 
117 93 68 122 5 40 73 15 155 94 
174 118 14 56 89 12 22 151 103 111 
80 69 120 175 26 31 121 65 128 76 
173 44 163 130 139 136 58 100 113 17 
92 3 83 72 51 2 10 50 35 60 
129 134 156 19 102 169 55 59 1 86 
98 110 142 28 164 84 21 165 144 24 
132 159 119 97 91 54 20 66 137 43 
70 95 123 168 53 42 4 99 133 8 
25 78 30 145 48 176 23 36 
